22      4       
15      15      16      16      
0       0       0       0       0       3       2       3       4       
2       5       0       9       0       3       5       14      17      
8       0       4       8       6       3       6       8       10      
2       0       8       6       0       1       5       
2       1       0       0       0       3       7       16      19      
4       0       0       0       6       1       12      
3       0       6       0       4       1       9       
1       0       6       7       0       2       13      17      
10      7       0       1       3       1       20      
3       0       9       0       0       2       11      15      
3       9       0       8       4       1       18      
8       0       0       3       0       1       14      
1       5       0       4       0       3       15      19      21      
10      3       0       0       0       1       15      
6       10      0       4       3       1       20      
7       0       2       0       3       1       21      
5       0       8       8       0       1       18      
6       0       0       1       7       1       21      
2       4       1       0       9       1       22      
2       0       8       2       6       1       22      
3       0       0       4       1       1       22      
0       0       0       0       0       0       